NAME: ../File/prFile/tspFile/tsp_file47.tsp
COMMENT: TSP file generated by Python
TYPE: TSP
DIMENSION: 30
EDGE_WEIGHT_TYPE: EUC_2D
NODE_COORD_SECTION
1 99 16
2 4 1
3 65 8
4 59 67
5 45 53
6 47 51
7 45 15
8 40 17
9 39 46
10 6 6
11 42 3
12 39 20
13 21 16
14 75 83
15 71 41
16 43 42
17 93 98
18 49 68
19 1 62
20 57 84
21 75 6
22 30 100
23 61 2
24 44 11
25 64 19
26 20 84
27 90 82
28 1 10
29 28 92
30 98 19
EOF
